nBusiness = 78;
nMeetings = 302;
nTables = 22;
nTotalSlots = 22;
nMorningSlots = 12;

requested = [|1, 38,3, 
|1, 50,3, 
|1, 54,3, 
|1, 78,3, 
|4, 1,3, 
|4, 2,3, 
|4, 5,3, 
|9, 1,2, 
|9, 3,2, 
|9, 4,2, 
|14, 2,2, 
|17, 26,1, 
|17, 29,1, 
|17, 36,1, 
|17, 37,1, 
|17, 45,1, 
|17, 46,1, 
|17, 55,1, 
|17, 56,1, 
|17, 58,1, 
|19, 48,3, 
|19, 61,3, 
|19, 64,3, 
|22, 25,3, 
|22, 52,3, 
|22, 54,3, 
|22, 60,3, 
|23, 30,3, 
|23, 61,3, 
|23, 62,3, 
|23, 64,3, 
|24, 2,3, 
|24, 5,3, 
|24, 6,3, 
|24, 20,3, 
|24, 21,3, 
|24, 26,3, 
|24, 45,3, 
|24, 54,3, 
|24, 60,3, 
|24, 61,3, 
|24, 62,3, 
|24, 64,3, 
|25, 3,3, 
|25, 4,3, 
|25, 24,3, 
|25, 41,3, 
|25, 44,3, 
|25, 48,3, 
|25, 52,3, 
|25, 56,3, 
|28, 3,1, 
|28, 6,1, 
|28, 12,1, 
|28, 19,1, 
|28, 23,1, 
|28, 62,1, 
|30, 64,1, 
|33, 26,3, 
|33, 29,3, 
|33, 31,3, 
|33, 46,3, 
|33, 60,3, 
|34, 2,3, 
|34, 23,3, 
|34, 24,3, 
|34, 43,3, 
|35, 5,3, 
|35, 17,3, 
|35, 23,3, 
|35, 28,3, 
|35, 42,3, 
|35, 61,3, 
|35, 62,3, 
|35, 64,3, 
|36, 19,3, 
|36, 20,3, 
|36, 21,3, 
|36, 22,3, 
|36, 24,3, 
|36, 27,3, 
|36, 28,3, 
|36, 33,3, 
|36, 34,3, 
|36, 35,3, 
|36, 38,3, 
|36, 39,3, 
|38, 25,3, 
|38, 27,3, 
|38, 39,3, 
|38, 42,3, 
|38, 53,3, 
|38, 54,3, 
|38, 57,3, 
|40, 2,1, 
|40, 22,1, 
|42, 25,3, 
|42, 31,3, 
|42, 33,3, 
|42, 54,3, 
|42, 57,3, 
|43, 1,3, 
|43, 4,3, 
|43, 17,3, 
|43, 30,3, 
|43, 50,3, 
|43, 59,3, 
|43, 60,3, 
|44, 1,3, 
|44, 4,3, 
|44, 28,3, 
|44, 34,3, 
|44, 37,3, 
|44, 62,3, 
|45, 11,3, 
|46, 6,1, 
|46, 26,1, 
|46, 28,1, 
|46, 29,1, 
|46, 32,1, 
|46, 36,1, 
|46, 41,1, 
|46, 57,1, 
|47, 20,1, 
|47, 22,1, 
|47, 27,1, 
|47, 38,1, 
|47, 39,1, 
|47, 49,1, 
|47, 52,1, 
|47, 62,1, 
|48, 4,3, 
|48, 17,3, 
|48, 23,3, 
|48, 34,3, 
|48, 38,3, 
|48, 44,3, 
|48, 46,3, 
|48, 55,3, 
|48, 61,3, 
|48, 62,3, 
|49, 1,3, 
|49, 75,3, 
|50, 28,3, 
|50, 47,3, 
|50, 49,3, 
|50, 51,3, 
|50, 57,3, 
|50, 60,3, 
|51, 27,1, 
|55, 23,3, 
|55, 29,3, 
|55, 32,3, 
|55, 33,3, 
|55, 44,3, 
|55, 46,3, 
|55, 52,3, 
|56, 6,3, 
|56, 11,3, 
|56, 38,3, 
|56, 46,3, 
|57, 1,3, 
|57, 2,3, 
|57, 4,3, 
|57, 5,3, 
|57, 6,3, 
|57, 21,3, 
|57, 22,3, 
|57, 24,3, 
|57, 25,3, 
|57, 37,3, 
|57, 54,3, 
|57, 61,3, 
|57, 62,3, 
|60, 26,3, 
|60, 27,3, 
|60, 29,3, 
|60, 37,3, 
|60, 40,3, 
|60, 41,3, 
|60, 47,3, 
|60, 52,3, 
|60, 55,3, 
|60, 58,3, 
|60, 59,3, 
|63, 3,3, 
|63, 5,3, 
|63, 6,3, 
|63, 49,3, 
|63, 57,3, 
|63, 60,3, 
|63, 61,3, 
|63, 62,3, 
|63, 64,3, 
|65, 1,3, 
|65, 8,3, 
|65, 14,3, 
|65, 19,3, 
|66, 3,3, 
|66, 4,3, 
|66, 8,3, 
|66, 10,3, 
|66, 60,3, 
|66, 61,3, 
|66, 62,3, 
|66, 64,3, 
|67, 1,3, 
|67, 2,3, 
|67, 7,3, 
|67, 13,3, 
|67, 24,3, 
|67, 30,3, 
|67, 48,3, 
|67, 49,3, 
|67, 50,3, 
|67, 54,3, 
|67, 59,3, 
|68, 24,3, 
|68, 25,3, 
|68, 26,3, 
|68, 28,3, 
|68, 29,3, 
|68, 31,3, 
|68, 32,3, 
|68, 33,3, 
|68, 34,3, 
|68, 35,3, 
|68, 36,3, 
|68, 37,3, 
|68, 38,3, 
|68, 39,3, 
|68, 40,3, 
|68, 41,3, 
|68, 42,3, 
|68, 43,3, 
|68, 44,3, 
|68, 45,3, 
|68, 46,3, 
|68, 47,3, 
|69, 1,3, 
|70, 5,3, 
|70, 6,3, 
|70, 17,3, 
|71, 6,3, 
|71, 17,3, 
|71, 29,3, 
|71, 32,3, 
|71, 38,3, 
|71, 54,3, 
|71, 55,3, 
|71, 61,3, 
|71, 64,3, 
|72, 8,3, 
|72, 14,3, 
|72, 19,3, 
|72, 26,3, 
|72, 62,3, 
|72, 65,3, 
|73, 25,1, 
|73, 26,1, 
|73, 32,1, 
|73, 34,1, 
|73, 41,1, 
|73, 45,1, 
|73, 46,1, 
|73, 48,1, 
|73, 52,1, 
|73, 54,1, 
|73, 55,1, 
|73, 57,1, 
|74, 29,3, 
|74, 36,3, 
|74, 61,3, 
|74, 62,3, 
|74, 64,3, 
|75, 25,1, 
|75, 28,1, 
|75, 29,1, 
|75, 41,1, 
|75, 46,1, 
|75, 54,1, 
|75, 65,1, 
|75, 69,1, 
|76, 29,3, 
|76, 33,3, 
|76, 36,3, 
|76, 64,3, 
|77, 2,3, 
|77, 31,3, 
|77, 53,3, 
|78, 3,1, 
|78, 8,1, 
|78, 12,1, 
|78, 14,1, 
|78, 16,1, 
|78, 19,1, 
|78, 22,1, 
|78, 25,1, 
|78, 39,1, 
|78, 52,1, 
|78, 57,1, 
|78, 59,1, 
|];

meetingsxBusiness = [{1,2,3,4,5,6,9,103,110,143,163,196,208,241},
{1,7,12,33,65,96,164,209,289},
{1,10,45,53,187,200,292},
{1,6,7,8,11,46,104,111,133,165,201},
{1,8,34,69,166,188,242},
{1,35,54,117,159,167,189,243,245},
{1,210},
{1,197,202,254,293},
{1,9,10,11},
{1,203},
{1,116,160},
{1,55,294},
{1,211},
{1,12,198,255,295},
{1},
{1,296},
{1,13,14,15,16,17,18,19,20,21,70,105,134,244,246},
{1},
{1,22,23,24,56,77,199,256,297},
{1,36,78,125},
{1,37,79,168},
{1,25,26,27,28,80,97,126,169,298},
{1,29,30,31,32,57,66,71,135,152},
{1,33,34,35,36,37,38,39,40,41,42,43,44,47,67,81,170,212,219},
{1,25,45,46,47,48,49,50,51,52,89,98,171,220,260,277,299},
{1,13,38,60,118,176,221,257,261},
{1,82,90,127,151,177},
{1,53,54,55,56,57,58,72,83,112,119,145,222,278},
{1,14,61,120,153,178,223,247,272,279,285},
{1,29,59,106,213},
{1,62,99,224,290},
{1,121,154,225,248,262},
{1,60,61,62,63,64,84,100,155,226,286},
{1,65,66,67,68,85,113,136,227,263},
{1,69,70,71,72,73,74,75,76,86,228},
{1,15,77,78,79,80,81,82,83,84,85,86,87,88,122,229,273,287},
{1,16,114,172,179,230},
{1,2,87,89,90,91,92,93,94,95,128,137,161,231,249},
{1,88,91,129,232,300},
{1,96,97,180,233},
{1,48,123,181,234,264,280},
{1,73,92,98,99,100,101,102,235},
{1,68,103,104,105,106,107,108,109,236},
{1,49,110,111,112,113,114,115,138,156,237},
{1,17,39,116,238,265},
{1,18,63,117,118,119,120,121,122,123,124,139,157,162,239,266,281},
{1,125,126,127,128,129,130,131,132,146,182,240},
{1,22,50,133,134,135,136,137,138,139,140,141,142,214,267},
{1,130,143,144,147,190,215},
{1,3,107,145,146,147,148,149,150,216},
{1,148,151},
{1,26,51,131,158,183,268,301},
{1,93,291},
{1,4,27,40,94,101,173,217,250,269,282},
{1,19,140,152,153,154,155,156,157,158,184,251,270},
{1,20,52,159,160,161,162},
{1,95,102,124,149,163,164,165,166,167,168,169,170,171,172,173,174,175,191,271,302},
{1,21,185},
{1,108,186,218,303},
{1,28,41,64,109,150,176,177,178,179,180,181,182,183,184,185,186,192,204},
{1,23,30,42,74,141,174,193,205,252,274},
{1,31,43,58,75,115,132,142,175,194,206,258,275},
{1,187,188,189,190,191,192,193,194,195},
{1,24,32,44,59,76,195,207,253,276,288},
{1,196,197,198,199,259,283},
{1,200,201,202,203,204,205,206,207},
{1,208,209,210,211,212,213,214,215,216,217,218},
{1,219,220,221,222,223,224,225,226,227,228,229,230,231,232,233,234,235,236,237,238,239,240},
{1,241,284},
{1,242,243,244},
{1,245,246,247,248,249,250,251,252,253},
{1,254,255,256,257,258,259},
{1,260,261,262,263,264,265,266,267,268,269,270,271},
{1,272,273,274,275,276},
{1,144,277,278,279,280,281,282,283,284},
{1,285,286,287,288},
{1,289,290,291},
{1,5,292,293,294,295,296,297,298,299,300,301,302,303}];

nMeetingsBusiness = [13,8,6,10,6,8,1,4,3,1,2,2,1,4,0,1,14,0,8,3,3,9,9,18,16,8,5,13,10,4,4,5,10,9,10,17,5,14,5,4,6,8,9,10,5,16,11,14,6,9,2,7,2,10,12,6,20,2,4,18,10,12,9,10,6,8,11,22,2,3,9,6,12,5,9,4,3,13];

forbidden = [{},
{},
{},
{},
{},
{},
{},
{},
{},
{},
{},
{17},
{},
{},
{},
{},
{},
{},
{},
{},
{},
{},
{},
{},
{4},
{},
{},
{},
{},
{},
{},
{},
{},
{},
{12},
{},
{},
{},
{13},
{},
{},
{},
{},
{},
{20},
{},
{},
{},
{15},
{18},
{},
{},
{},
{},
{4},
{},
{},
{},
{},
{},
{3},
{},
{},
{},
{},
{22},
{},
{9},
{},
{},
{1},
{},
{},
{},
{},
{},
{},
{}];

fixed = [0,0,0,0,0,0,0,0,0,0,0,0,0,0,0,0,0,0,0,0,0,0,0,0,0,0,0,0,0,0,0,0,0,0,0,0,0,0,0,0,0,0,0,0,0,0,0,0,0,0,0,0,0,0,0,0,0,0,0,0,0,0,0,0,0,0,0,0,0,0,0,0,0,0,0,0,0,0,0,0,0,0,0,0,0,0,0,0,0,0,0,0,0,0,0,0,0,0,0,0,0,0,0,0,0,0,0,0,0,0,0,0,0,0,0,0,0,0,0,0,0,0,0,0,0,0,0,0,0,0,0,0,0,0,0,0,0,0,0,0,0,0,0,0,0,0,0,0,0,0,0,0,0,0,0,0,0,0,0,0,0,0,0,0,0,0,0,0,0,0,0,0,0,0,0,0,0,0,0,0,0,0,0,0,0,0,0,0,0,0,0,0,0,0,0,0,0,0,0,0,0,0,0,0,0,0,0,0,0,0,0,0,0,0,0,0,0,0,0,0,0,0,0,0,0,0,0,0,0,0,0,0,0,0,0,0,0,0,0,0,0,0,0,0,0,0,0,0,0,0,0,0,0,0,0,0,0,0,0,0,0,0,0,0,0,0,0,0,0,0,0,0,0,0,0,0,0,0,0,0,0,0,0,0,0,0,0,0,0,0,0,0,0,0,0,0,0,0,0,0,0,0];

precedences = [{},
{},
{},
{},
{},
{},
{},
{},
{},
{},
{},
{},
{},
{},
{},
{},
{},
{},
{},
{},
{},
{},
{},
{},
{},
{},
{},
{},
{},
{},
{},
{},
{},
{},
{},
{},
{},
{},
{},
{},
{},
{},
{},
{},
{},
{},
{},
{},
{},
{},
{},
{},
{},
{},
{},
{},
{},
{},
{},
{},
{},
{},
{},
{},
{},
{},
{},
{},
{},
{},
{},
{},
{},
{},
{},
{},
{},
{},
{},
{},
{},
{},
{},
{},
{},
{},
{},
{},
{},
{},
{},
{},
{},
{},
{},
{},
{},
{},
{},
{},
{},
{},
{},
{},
{},
{},
{},
{},
{},
{},
{},
{},
{},
{},
{},
{},
{},
{},
{},
{},
{},
{},
{},
{},
{},
{},
{},
{},
{},
{},
{},
{},
{},
{},
{},
{},
{},
{},
{},
{},
{},
{},
{},
{},
{},
{},
{},
{},
{},
{},
{},
{},
{},
{},
{},
{},
{},
{},
{},
{},
{},
{},
{},
{},
{},
{},
{},
{},
{},
{},
{},
{},
{},
{},
{},
{},
{},
{},
{},
{},
{},
{},
{},
{},
{},
{},
{},
{},
{},
{},
{},
{},
{},
{},
{},
{},
{},
{},
{},
{},
{},
{},
{},
{},
{},
{},
{},
{},
{},
{},
{},
{},
{},
{},
{},
{},
{},
{},
{},
{},
{},
{},
{},
{},
{},
{},
{},
{},
{},
{},
{},
{},
{},
{},
{},
{},
{},
{},
{},
{},
{},
{},
{},
{},
{},
{},
{},
{},
{},
{},
{},
{},
{},
{},
{},
{},
{},
{},
{},
{},
{},
{},
{},
{},
{},
{},
{},
{},
{},
{},
{},
{},
{},
{},
{},
{},
{},
{},
{},
{},
{},
{},
{},
{},
{},
{},
{},
{},
{},
{},
{},
{},
{},
{},
{},
{},
{},
{},
{},
{},
{},
{}];

